DIMENSION: 14
NODE_COORD_SECTION
1 -1800.0000000000 -63.8932496075
2 216.8249660787 -71.7466945024
3 7281.0810810811 -5152.3809523810
4 -133.6547733848 1067.9525222552
5 -3902.7027027027 256.0640732265
6 859.6958174905 -1809.8159509202
7 129.9912049252 304.2944785276
8 -675.9493670886 -1956.4417177914
9 3009.5238095238 57.8399479506
10 -713.2723112128 -1426.3803680982
11 452.7815468114 1114.5985401460
12 -259.6604688763 -976.6423357664
13 304.8054919908 48.9823609227
14 -159.1754244139 -601.4598540146
EOF